37286.8 0
4 5 6 7 8 9 10 11 14 15 16 17 18 19 20 568 569 570 474 473 472 494 495 471 470 469 468 467 466 465 464 496 497 463 462 461 499 500 452 453 440 441 450 449 448 447 446 442 439 443 444 445 381 380 379 378 377 376 375 395 396 394 393 391 392 390 389 388 387 385 386 382 383 384 409 408 407 406 405 404 400 399 397 398 371 372 370 369 368 367 365 342 366 329 328 327 326 325 324 323 322 373 374 315 314 316 313 312 451 311 310 309 308 307 305 318 317 321 320 319 306 304 303 301 302 508 507 506 505 504 503 502 501 498 519 518 520 517 516 515 514 513 509 510 511 512 527 522 521 523 526 525 524 493 492 491 490 528 529 530 531 532 533 489 488 534 535 487 486 485 484 536 483 481 482 475 476 480 479 477 478 548 549 560 561 562 563 564 565 566 567 29 28 27 26 25 24 21 13 12 23 22 31 30 32 33 34 35 36 37 38 40 41 39 42 43 49 48 47 44 45 46 91 92 93 90 87 86 85 84 51 50 52 53 54 55 56 83 82 57 58 59 81 80 79 61 60 63 62 64 76 77 78 88 89 94 97 95 96 98 99 100 552 553 554 555 556 557 558 559 550 551 101 102 103 547 546 545 544 543 541 542 107 104 105 106 115 116 117 118 119 120 121 122 123 71 72 73 74 75 65 66 67 68 70 69 124 125 126 127 128 129 130 131 132 133 134 135 136 137 138 139 140 141 151 150 149 152 148 147 146 142 143 144 145 158 157 153 156 159 155 154 165 164 166 167 163 168 162 160 161 113 112 114 111 110 109 108 173 174 175 172 170 171 169 180 181 179 178 177 176 540 539 537 538 187 188 186 182 183 185 184 194 195 196 197 198 199 200 201 202 204 203 208 207 206 205 209 210 211 212 213 214 215 216 217 223 224 222 221 220 218 219 193 192 191 190 226 225 189 227 228 229 230 231 233 232 234 235 236 237 240 239 238 246 247 245 244 243 242 241 248 249 250 251 252 254 253 255 256 257 300 299 258 259 260 261 262 263 264 265 266 298 297 296 295 294 293 270 269 268 267 271 272 273 274 275 292 291 290 289 288 276 277 278 279 282 281 280 287 286 285 284 283 334 335 336 337 338 339 333 332 331 330 340 341 343 344 345 346 364 363 361 362 347 348 349 350 351 415 416 414 413 352 353 354 355 357 358 359 360 401 402 403 356 412 411 410 418 417 419 420 421 422 423 424 425 426 427 428 429 431 430 432 433 434 435 436 437 438 454 455 456 457 458 459 460 571 572 573 0 1 2 3 
